clingo version 5.6.2
Reading from ...etition/0002-graph_colouring-125-0.asp ...
Solving...
UNKNOWN

TIME LIMIT   : 1
Models       : 0+
Calls        : 1
Time         : 600.025s (Solving: 599.86s 1st Model: 0.00s Unsat: 0.00s)
CPU Time     : 599.761s

Choices      : 12346473
Conflicts    : 11382339 (Analyzed: 11382339)
Restarts     : 22523    (Average: 505.37 Last: 11364704)
Problems     : 1        (Average Length: 0.00 Splits: 0)
Lemmas       : 11382339 (Deleted: 11330479)
  Binary     : 1        (Ratio:   0.00%)
  Ternary    : 71       (Ratio:   0.00%)
  Conflict   : 11382339 (Average Length:   32.6 Ratio: 100.00%) 
  Loop       : 0        (Average Length:    0.0 Ratio:   0.00%) 
  Other      : 0        (Average Length:    0.0 Ratio:   0.00%) 
Backjumps    : 11382339 (Average:  1.07 Max:  12 Sum: 12168866)
  Executed   : 11382339 (Average:  1.07 Max:  12 Sum: 12168866 Ratio: 100.00%)
  Bounded    : 0        (Average:  0.00 Max:   0 Sum:      0 Ratio:   0.00%)

Rules        : 16898   
Atoms        : 3100    
Bodies       : 1230    
Equivalences : 2443     (Atom=Atom: 10 Body=Body: 608 Other: 1825)
Tight        : Yes
Variables    : 736      (Eliminated:    0 Frozen:    0)
Constraints  : 6888     (Binary:  89.4% Ternary:   0.1% Other:  10.5%)

